100
1000
163
161
159
159
157
156
156
156
155
154
153
152
151
150
148
147
147
146
146
145
145
144
141
139
139
138
138
138
136
136
135
135
131
130
128
126
125
124
123
123
122
122
122
120
118
118
117
116
112
111
110
109
107
106
106
106
106
106
104
104
103
102
102
102
101
101
99
99
98
98
97
95
95
93
90
90
87
84
84
83
80
80
79
75
75
74
74
74
72
69
69
66
66
65
63
62
61
61
59
59
